# Solution for model MBA_ILP_SEMI
# Objective value = 3.1268571428571434e+01
x_0_0_1_1 0
x_0_1_0_1 0
x_0_1_2_1 0
x_0_2_1_1 0
x_0_2_3_1 0
x_0_3_2_1 1
x_0_3_4_1 0
x_0_3_4_2 0
x_0_3_6_2 0
x_0_3_10_3 0
x_0_4_3_1 1
x_0_4_3_2 0
x_0_4_5_1 0
x_0_5_4_1 1
x_0_5_10_3 0
x_0_5_11_3 0
x_0_6_3_2 0
x_0_6_7_2 0
x_0_7_6_2 0
x_0_7_8_2 0
x_0_7_10_4 0
x_0_7_14_4 0
x_0_8_7_2 0
x_0_8_9_2 0
x_0_9_8_2 0
x_0_10_3_3 0
x_0_10_5_3 0
x_0_10_7_4 0
x_0_11_5_3 0
x_0_11_12_3 0
x_0_12_11_3 0
x_0_12_13_3 0
x_0_13_12_3 0
x_0_14_7_4 0
x_0_14_15_4 0
x_0_15_14_4 0
x_0_15_16_4 0
x_0_16_15_4 0
x_1_0_1_1 0
x_1_1_0_1 0
x_1_1_2_1 0
x_1_2_1_1 0
x_1_2_3_1 0
x_1_3_2_1 0
x_1_3_4_1 0
x_1_3_4_2 0
x_1_3_6_2 0
x_1_3_10_3 0
x_1_4_3_1 0
x_1_4_3_2 0
x_1_4_5_1 0
x_1_5_4_1 0
x_1_5_10_3 0
x_1_5_11_3 0
x_1_6_3_2 0
x_1_6_7_2 0
x_1_7_6_2 0
x_1_7_8_2 1
x_1_7_10_4 0
x_1_7_14_4 0
x_1_8_7_2 0
x_1_8_9_2 0
x_1_9_8_2 0
x_1_10_3_3 0
x_1_10_5_3 0
x_1_10_7_4 0
x_1_11_5_3 0
x_1_11_12_3 0
x_1_12_11_3 0
x_1_12_13_3 0
x_1_13_12_3 0
x_1_14_7_4 1
x_1_14_15_4 0
x_1_15_14_4 1
x_1_15_16_4 0
x_1_16_15_4 0
x_2_0_1_1 0
x_2_1_0_1 0
x_2_1_2_1 0
x_2_2_1_1 0
x_2_2_3_1 0
x_2_3_2_1 0
x_2_3_4_1 0
x_2_3_4_2 0
x_2_3_6_2 0
x_2_3_10_3 0
x_2_4_3_1 0
x_2_4_3_2 0
x_2_4_5_1 0
x_2_5_4_1 0
x_2_5_10_3 1
x_2_5_11_3 0
x_2_6_3_2 0
x_2_6_7_2 0
x_2_7_6_2 0
x_2_7_8_2 0
x_2_7_10_4 0
x_2_7_14_4 0
x_2_8_7_2 0
x_2_8_9_2 0
x_2_9_8_2 0
x_2_10_3_3 0
x_2_10_5_3 0
x_2_10_7_4 0
x_2_11_5_3 0
x_2_11_12_3 0
x_2_12_11_3 0
x_2_12_13_3 0
x_2_13_12_3 0
x_2_14_7_4 0
x_2_14_15_4 0
x_2_15_14_4 0
x_2_15_16_4 0
x_2_16_15_4 0
x_3_0_1_1 0
x_3_1_0_1 0
x_3_1_2_1 0
x_3_2_1_1 0
x_3_2_3_1 0
x_3_3_2_1 0
x_3_3_4_1 0
x_3_3_4_2 0
x_3_3_6_2 0
x_3_3_10_3 0
x_3_4_3_1 0
x_3_4_3_2 0
x_3_4_5_1 0
x_3_5_4_1 0
x_3_5_10_3 0
x_3_5_11_3 1
x_3_6_3_2 0
x_3_6_7_2 0
x_3_7_6_2 0
x_3_7_8_2 0
x_3_7_10_4 0
x_3_7_14_4 0
x_3_8_7_2 0
x_3_8_9_2 0
x_3_9_8_2 0
x_3_10_3_3 0
x_3_10_5_3 1
x_3_10_7_4 0
x_3_11_5_3 0
x_3_11_12_3 1
x_3_12_11_3 0
x_3_12_13_3 0
x_3_13_12_3 0
x_3_14_7_4 0
x_3_14_15_4 0
x_3_15_14_4 0
x_3_15_16_4 0
x_3_16_15_4 0
x_4_0_1_1 0
x_4_1_0_1 0
x_4_1_2_1 0
x_4_2_1_1 0
x_4_2_3_1 1
x_4_3_2_1 0
x_4_3_4_1 0
x_4_3_4_2 0
x_4_3_6_2 1
x_4_3_10_3 0
x_4_4_3_1 0
x_4_4_3_2 0
x_4_4_5_1 0
x_4_5_4_1 0
x_4_5_10_3 0
x_4_5_11_3 0
x_4_6_3_2 0
x_4_6_7_2 1
x_4_7_6_2 0
x_4_7_8_2 0
x_4_7_10_4 0
x_4_7_14_4 1
x_4_8_7_2 0
x_4_8_9_2 0
x_4_9_8_2 0
x_4_10_3_3 0
x_4_10_5_3 0
x_4_10_7_4 0
x_4_11_5_3 0
x_4_11_12_3 0
x_4_12_11_3 0
x_4_12_13_3 0
x_4_13_12_3 0
x_4_14_7_4 0
x_4_14_15_4 0
x_4_15_14_4 0
x_4_15_16_4 0
x_4_16_15_4 0
x_5_0_1_1 0
x_5_1_0_1 0
x_5_1_2_1 0
x_5_2_1_1 0
x_5_2_3_1 0
x_5_3_2_1 0
x_5_3_4_1 0
x_5_3_4_2 0
x_5_3_6_2 0
x_5_3_10_3 0
x_5_4_3_1 0
x_5_4_3_2 0
x_5_4_5_1 0
x_5_5_4_1 0
x_5_5_10_3 1
x_5_5_11_3 0
x_5_6_3_2 0
x_5_6_7_2 0
x_5_7_6_2 0
x_5_7_8_2 0
x_5_7_10_4 0
x_5_7_14_4 0
x_5_8_7_2 0
x_5_8_9_2 0
x_5_9_8_2 0
x_5_10_3_3 0
x_5_10_5_3 0
x_5_10_7_4 0
x_5_11_5_3 1
x_5_11_12_3 0
x_5_12_11_3 1
x_5_12_13_3 0
x_5_13_12_3 0
x_5_14_7_4 0
x_5_14_15_4 0
x_5_15_14_4 0
x_5_15_16_4 0
x_5_16_15_4 0
x_6_0_1_1 1
x_6_1_0_1 0
x_6_1_2_1 1
x_6_2_1_1 0
x_6_2_3_1 1
x_6_3_2_1 0
x_6_3_4_1 0
x_6_3_4_2 0
x_6_3_6_2 1
x_6_3_10_3 0
x_6_4_3_1 0
x_6_4_3_2 0
x_6_4_5_1 0
x_6_5_4_1 0
x_6_5_10_3 0
x_6_5_11_3 0
x_6_6_3_2 0
x_6_6_7_2 0
x_6_7_6_2 0
x_6_7_8_2 0
x_6_7_10_4 0
x_6_7_14_4 0
x_6_8_7_2 0
x_6_8_9_2 0
x_6_9_8_2 0
x_6_10_3_3 0
x_6_10_5_3 0
x_6_10_7_4 0
x_6_11_5_3 0
x_6_11_12_3 0
x_6_12_11_3 0
x_6_12_13_3 0
x_6_13_12_3 0
x_6_14_7_4 0
x_6_14_15_4 0
x_6_15_14_4 0
x_6_15_16_4 0
x_6_16_15_4 0
x_7_0_1_1 0
x_7_1_0_1 0
x_7_1_2_1 0
x_7_2_1_1 0
x_7_2_3_1 1
x_7_3_2_1 0
x_7_3_4_1 1
x_7_3_4_2 0
x_7_3_6_2 0
x_7_3_10_3 0
x_7_4_3_1 0
x_7_4_3_2 0
x_7_4_5_1 1
x_7_5_4_1 0
x_7_5_10_3 0
x_7_5_11_3 1
x_7_6_3_2 0
x_7_6_7_2 0
x_7_7_6_2 0
x_7_7_8_2 0
x_7_7_10_4 0
x_7_7_14_4 0
x_7_8_7_2 0
x_7_8_9_2 0
x_7_9_8_2 0
x_7_10_3_3 0
x_7_10_5_3 0
x_7_10_7_4 0
x_7_11_5_3 0
x_7_11_12_3 0
x_7_12_11_3 0
x_7_12_13_3 0
x_7_13_12_3 0
x_7_14_7_4 0
x_7_14_15_4 0
x_7_15_14_4 0
x_7_15_16_4 0
x_7_16_15_4 0
x_8_0_1_1 1
x_8_1_0_1 0
x_8_1_2_1 1
x_8_2_1_1 0
x_8_2_3_1 1
x_8_3_2_1 0
x_8_3_4_1 1
x_8_3_4_2 0
x_8_3_6_2 0
x_8_3_10_3 0
x_8_4_3_1 0
x_8_4_3_2 0
x_8_4_5_1 1
x_8_5_4_1 0
x_8_5_10_3 0
x_8_5_11_3 1
x_8_6_3_2 0
x_8_6_7_2 0
x_8_7_6_2 0
x_8_7_8_2 0
x_8_7_10_4 0
x_8_7_14_4 0
x_8_8_7_2 0
x_8_8_9_2 0
x_8_9_8_2 0
x_8_10_3_3 0
x_8_10_5_3 0
x_8_10_7_4 0
x_8_11_5_3 0
x_8_11_12_3 0
x_8_12_11_3 0
x_8_12_13_3 0
x_8_13_12_3 0
x_8_14_7_4 0
x_8_14_15_4 0
x_8_15_14_4 0
x_8_15_16_4 0
x_8_16_15_4 0
x_9_0_1_1 0
x_9_1_0_1 0
x_9_1_2_1 0
x_9_2_1_1 0
x_9_2_3_1 0
x_9_3_2_1 0
x_9_3_4_1 0
x_9_3_4_2 0
x_9_3_6_2 0
x_9_3_10_3 0
x_9_4_3_1 0
x_9_4_3_2 0
x_9_4_5_1 0
x_9_5_4_1 0
x_9_5_10_3 0
x_9_5_11_3 1
x_9_6_3_2 0
x_9_6_7_2 0
x_9_7_6_2 0
x_9_7_8_2 0
x_9_7_10_4 1
x_9_7_14_4 0
x_9_8_7_2 0
x_9_8_9_2 0
x_9_9_8_2 0
x_9_10_3_3 0
x_9_10_5_3 1
x_9_10_7_4 0
x_9_11_5_3 0
x_9_11_12_3 1
x_9_12_11_3 0
x_9_12_13_3 0
x_9_13_12_3 0
x_9_14_7_4 0
x_9_14_15_4 0
x_9_15_14_4 0
x_9_15_16_4 0
x_9_16_15_4 0
x_10_0_1_1 0
x_10_1_0_1 0
x_10_1_2_1 0
x_10_2_1_1 1
x_10_2_3_1 0
x_10_3_2_1 1
x_10_3_4_1 0
x_10_3_4_2 0
x_10_3_6_2 0
x_10_3_10_3 0
x_10_4_3_1 0
x_10_4_3_2 0
x_10_4_5_1 0
x_10_5_4_1 0
x_10_5_10_3 0
x_10_5_11_3 0
x_10_6_3_2 1
x_10_6_7_2 0
x_10_7_6_2 1
x_10_7_8_2 0
x_10_7_10_4 0
x_10_7_14_4 0
x_10_8_7_2 0
x_10_8_9_2 0
x_10_9_8_2 0
x_10_10_3_3 0
x_10_10_5_3 0
x_10_10_7_4 0
x_10_11_5_3 0
x_10_11_12_3 0
x_10_12_11_3 0
x_10_12_13_3 0
x_10_13_12_3 0
x_10_14_7_4 1
x_10_14_15_4 0
x_10_15_14_4 1
x_10_15_16_4 0
x_10_16_15_4 1
x_11_0_1_1 0
x_11_1_0_1 0
x_11_1_2_1 0
x_11_2_1_1 0
x_11_2_3_1 0
x_11_3_2_1 0
x_11_3_4_1 0
x_11_3_4_2 0
x_11_3_6_2 0
x_11_3_10_3 0
x_11_4_3_1 0
x_11_4_3_2 0
x_11_4_5_1 0
x_11_5_4_1 0
x_11_5_10_3 0
x_11_5_11_3 0
x_11_6_3_2 0
x_11_6_7_2 0
x_11_7_6_2 0
x_11_7_8_2 0
x_11_7_10_4 0
x_11_7_14_4 1
x_11_8_7_2 1
x_11_8_9_2 0
x_11_9_8_2 1
x_11_10_3_3 0
x_11_10_5_3 0
x_11_10_7_4 0
x_11_11_5_3 0
x_11_11_12_3 0
x_11_12_11_3 0
x_11_12_13_3 0
x_11_13_12_3 0
x_11_14_7_4 0
x_11_14_15_4 1
x_11_15_14_4 0
x_11_15_16_4 0
x_11_16_15_4 0
x_12_0_1_1 0
x_12_1_0_1 0
x_12_1_2_1 0
x_12_2_1_1 0
x_12_2_3_1 0
x_12_3_2_1 0
x_12_3_4_1 0
x_12_3_4_2 0
x_12_3_6_2 0
x_12_3_10_3 0
x_12_4_3_1 0
x_12_4_3_2 0
x_12_4_5_1 0
x_12_5_4_1 0
x_12_5_10_3 0
x_12_5_11_3 0
x_12_6_3_2 0
x_12_6_7_2 0
x_12_7_6_2 0
x_12_7_8_2 0
x_12_7_10_4 0
x_12_7_14_4 1
x_12_8_7_2 0
x_12_8_9_2 0
x_12_9_8_2 0
x_12_10_3_3 0
x_12_10_5_3 0
x_12_10_7_4 0
x_12_11_5_3 0
x_12_11_12_3 0
x_12_12_11_3 0
x_12_12_13_3 0
x_12_13_12_3 0
x_12_14_7_4 0
x_12_14_15_4 1
x_12_15_14_4 0
x_12_15_16_4 0
x_12_16_15_4 0
x_13_0_1_1 0
x_13_1_0_1 0
x_13_1_2_1 0
x_13_2_1_1 0
x_13_2_3_1 0
x_13_3_2_1 0
x_13_3_4_1 0
x_13_3_4_2 0
x_13_3_6_2 0
x_13_3_10_3 0
x_13_4_3_1 0
x_13_4_3_2 0
x_13_4_5_1 0
x_13_5_4_1 1
x_13_5_10_3 0
x_13_5_11_3 0
x_13_6_3_2 0
x_13_6_7_2 0
x_13_7_6_2 0
x_13_7_8_2 0
x_13_7_10_4 0
x_13_7_14_4 0
x_13_8_7_2 0
x_13_8_9_2 0
x_13_9_8_2 0
x_13_10_3_3 0
x_13_10_5_3 0
x_13_10_7_4 0
x_13_11_5_3 0
x_13_11_12_3 0
x_13_12_11_3 0
x_13_12_13_3 0
x_13_13_12_3 0
x_13_14_7_4 0
x_13_14_15_4 0
x_13_15_14_4 0
x_13_15_16_4 0
x_13_16_15_4 0
x_14_0_1_1 0
x_14_1_0_1 0
x_14_1_2_1 0
x_14_2_1_1 0
x_14_2_3_1 0
x_14_3_2_1 0
x_14_3_4_1 0
x_14_3_4_2 0
x_14_3_6_2 0
x_14_3_10_3 0
x_14_4_3_1 0
x_14_4_3_2 0
x_14_4_5_1 0
x_14_5_4_1 0
x_14_5_10_3 0
x_14_5_11_3 1
x_14_6_3_2 0
x_14_6_7_2 0
x_14_7_6_2 0
x_14_7_8_2 0
x_14_7_10_4 1
x_14_7_14_4 0
x_14_8_7_2 0
x_14_8_9_2 0
x_14_9_8_2 0
x_14_10_3_3 0
x_14_10_5_3 1
x_14_10_7_4 0
x_14_11_5_3 0
x_14_11_12_3 1
x_14_12_11_3 0
x_14_12_13_3 0
x_14_13_12_3 0
x_14_14_7_4 1
x_14_14_15_4 0
x_14_15_14_4 0
x_14_15_16_4 0
x_14_16_15_4 0
x_15_0_1_1 0
x_15_1_0_1 0
x_15_1_2_1 0
x_15_2_1_1 1
x_15_2_3_1 0
x_15_3_2_1 1
x_15_3_4_1 0
x_15_3_4_2 0
x_15_3_6_2 0
x_15_3_10_3 0
x_15_4_3_1 0
x_15_4_3_2 0
x_15_4_5_1 0
x_15_5_4_1 0
x_15_5_10_3 0
x_15_5_11_3 0
x_15_6_3_2 1
x_15_6_7_2 0
x_15_7_6_2 1
x_15_7_8_2 0
x_15_7_10_4 0
x_15_7_14_4 0
x_15_8_7_2 0
x_15_8_9_2 0
x_15_9_8_2 0
x_15_10_3_3 0
x_15_10_5_3 0
x_15_10_7_4 0
x_15_11_5_3 0
x_15_11_12_3 0
x_15_12_11_3 0
x_15_12_13_3 0
x_15_13_12_3 0
x_15_14_7_4 1
x_15_14_15_4 0
x_15_15_14_4 0
x_15_15_16_4 0
x_15_16_15_4 0
x_16_0_1_1 1
x_16_1_0_1 0
x_16_1_2_1 1
x_16_2_1_1 0
x_16_2_3_1 1
x_16_3_2_1 0
x_16_3_4_1 1
x_16_3_4_2 0
x_16_3_6_2 0
x_16_3_10_3 0
x_16_4_3_1 0
x_16_4_3_2 0
x_16_4_5_1 0
x_16_5_4_1 0
x_16_5_10_3 0
x_16_5_11_3 0
x_16_6_3_2 0
x_16_6_7_2 0
x_16_7_6_2 0
x_16_7_8_2 0
x_16_7_10_4 0
x_16_7_14_4 0
x_16_8_7_2 0
x_16_8_9_2 0
x_16_9_8_2 0
x_16_10_3_3 0
x_16_10_5_3 0
x_16_10_7_4 0
x_16_11_5_3 0
x_16_11_12_3 0
x_16_12_11_3 0
x_16_12_13_3 0
x_16_13_12_3 0
x_16_14_7_4 0
x_16_14_15_4 0
x_16_15_14_4 0
x_16_15_16_4 0
x_16_16_15_4 0
x_17_0_1_1 0
x_17_1_0_1 0
x_17_1_2_1 0
x_17_2_1_1 0
x_17_2_3_1 0
x_17_3_2_1 0
x_17_3_4_1 0
x_17_3_4_2 0
x_17_3_6_2 0
x_17_3_10_3 0
x_17_4_3_1 0
x_17_4_3_2 0
x_17_4_5_1 0
x_17_5_4_1 0
x_17_5_10_3 0
x_17_5_11_3 0
x_17_6_3_2 0
x_17_6_7_2 0
x_17_7_6_2 1
x_17_7_8_2 0
x_17_7_10_4 0
x_17_7_14_4 0
x_17_8_7_2 0
x_17_8_9_2 0
x_17_9_8_2 0
x_17_10_3_3 0
x_17_10_5_3 0
x_17_10_7_4 0
x_17_11_5_3 0
x_17_11_12_3 0
x_17_12_11_3 0
x_17_12_13_3 0
x_17_13_12_3 0
x_17_14_7_4 1
x_17_14_15_4 0
x_17_15_14_4 0
x_17_15_16_4 0
x_17_16_15_4 0
x_18_0_1_1 1
x_18_1_0_1 0
x_18_1_2_1 1
x_18_2_1_1 0
x_18_2_3_1 1
x_18_3_2_1 0
x_18_3_4_1 0
x_18_3_4_2 0
x_18_3_6_2 1
x_18_3_10_3 0
x_18_4_3_1 0
x_18_4_3_2 0
x_18_4_5_1 0
x_18_5_4_1 0
x_18_5_10_3 0
x_18_5_11_3 0
x_18_6_3_2 0
x_18_6_7_2 1
x_18_7_6_2 0
x_18_7_8_2 1
x_18_7_10_4 0
x_18_7_14_4 0
x_18_8_7_2 0
x_18_8_9_2 0
x_18_9_8_2 0
x_18_10_3_3 0
x_18_10_5_3 0
x_18_10_7_4 0
x_18_11_5_3 0
x_18_11_12_3 0
x_18_12_11_3 0
x_18_12_13_3 0
x_18_13_12_3 0
x_18_14_7_4 0
x_18_14_15_4 0
x_18_15_14_4 0
x_18_15_16_4 0
x_18_16_15_4 0
x_19_0_1_1 0
x_19_1_0_1 0
x_19_1_2_1 0
x_19_2_1_1 0
x_19_2_3_1 0
x_19_3_2_1 0
x_19_3_4_1 0
x_19_3_4_2 0
x_19_3_6_2 0
x_19_3_10_3 0
x_19_4_3_1 0
x_19_4_3_2 0
x_19_4_5_1 0
x_19_5_4_1 0
x_19_5_10_3 1
x_19_5_11_3 0
x_19_6_3_2 0
x_19_6_7_2 0
x_19_7_6_2 0
x_19_7_8_2 1
x_19_7_10_4 0
x_19_7_14_4 0
x_19_8_7_2 0
x_19_8_9_2 0
x_19_9_8_2 0
x_19_10_3_3 0
x_19_10_5_3 0
x_19_10_7_4 1
x_19_11_5_3 1
x_19_11_12_3 0
x_19_12_11_3 0
x_19_12_13_3 0
x_19_13_12_3 0
x_19_14_7_4 0
x_19_14_15_4 0
x_19_15_14_4 0
x_19_15_16_4 0
x_19_16_15_4 0
w_1_0 24
w_1_1 24
w_1_2 3
w_1_3 3
w_1_4 3
w_1_5 3
w_2_0 0
w_2_1 10
w_2_2 0
w_2_3 5
w_2_4 4
w_2_5 4
w_3_0 0
w_3_1 3
w_3_2 7
w_3_3 5
w_3_4 3
w_3_5 7
w_4_0 6
w_4_1 7
w_4_2 1
w_4_3 7
z_0_3 0
z_0_4 0
z_0_5 0
z_0_7 0
z_0_10 0
z_1_3 0
z_1_4 0
z_1_5 0
z_1_7 0
z_1_10 0
z_2_3 0
z_2_4 0
z_2_5 0
z_2_7 0
z_2_10 0
z_3_3 0
z_3_4 0
z_3_5 0
z_3_7 0
z_3_10 0
z_4_3 0
z_4_4 0
z_4_5 0
z_4_7 0
z_4_10 0
z_5_3 0
z_5_4 0
z_5_5 0
z_5_7 0
z_5_10 0
z_6_3 0
z_6_4 0
z_6_5 0
z_6_7 0
z_6_10 0
z_7_3 0
z_7_4 0
z_7_5 0
z_7_7 0
z_7_10 0
z_8_3 0
z_8_4 0
z_8_5 0
z_8_7 0
z_8_10 0
z_9_3 0
z_9_4 0
z_9_5 0
z_9_7 0
z_9_10 0
z_10_3 0
z_10_4 0
z_10_5 0
z_10_7 0
z_10_10 0
z_11_3 0
z_11_4 0
z_11_5 0
z_11_7 0
z_11_10 0
z_12_3 0
z_12_4 0
z_12_5 0
z_12_7 0
z_12_10 0
z_13_3 0
z_13_4 0
z_13_5 0
z_13_7 0
z_13_10 0
z_14_3 0
z_14_4 0
z_14_5 0
z_14_7 0
z_14_10 0
z_15_3 0
z_15_4 0
z_15_5 0
z_15_7 0
z_15_10 0
z_16_3 0
z_16_4 0
z_16_5 0
z_16_7 0
z_16_10 0
z_17_3 0
z_17_4 0
z_17_5 0
z_17_7 0
z_17_10 0
z_18_3 0
z_18_4 0
z_18_5 0
z_18_7 0
z_18_10 0
z_19_3 0
z_19_4 0
z_19_5 0
z_19_7 0
z_19_10 0
